c SAT Generator for power-law distributed variable frequencies
c -g u -v 20 -c 91 -k 3 -p 2.750000 -b 3.200000 -f /home/schmidt/Devel/ni-kop-sat/data/ensemble/ruf20-91/ruf20-91-622 -u 1 -U 1 -s 4055459970
p cnf 20 91
-5 9 12 0
-5 11 17 0
-10 15 -19 0
-1 10 -17 0
-9 -12 -17 0
6 -11 20 0
1 4 16 0
10 13 -17 0
5 -8 19 0
-3 7 11 0
1 7 -11 0
7 10 18 0
-2 -4 11 0
-8 -17 -18 0
5 -11 15 0
-8 11 -12 0
-5 7 18 0
-6 8 20 0
-11 -15 -19 0
-2 -17 20 0
1 4 -18 0
-9 -11 20 0
2 -3 5 0
7 11 15 0
17 18 20 0
-5 6 -11 0
-7 12 -15 0
6 -9 20 0
5 -10 13 0
6 10 -20 0
-11 19 -20 0
6 -11 18 0
6 -12 13 0
-3 13 15 0
5 13 -20 0
1 -3 8 0
-17 -19 20 0
-5 -6 13 0
6 -16 18 0
2 7 -15 0
12 13 -19 0
-7 18 -20 0
-11 -18 20 0
12 18 19 0
-5 9 18 0
5 -6 -18 0
4 -9 -13 0
-11 17 18 0
-9 14 19 0
1 6 15 0
-8 10 -19 0
-1 14 -19 0
1 3 -16 0
2 -9 20 0
-3 -5 -9 0
-2 14 -20 0
1 -10 -16 0
7 -15 -17 0
1 4 -5 0
13 19 20 0
13 -14 20 0
-4 15 -16 0
8 -11 20 0
-6 -10 -20 0
-1 15 20 0
-12 13 -18 0
-7 -12 13 0
1 -16 18 0
7 -18 20 0
-11 15 16 0
-3 -6 -9 0
-11 14 -19 0
3 13 14 0
8 17 18 0
-5 13 16 0
1 3 -8 0
1 -2 6 0
-11 12 19 0
-3 -16 20 0
8 12 -15 0
12 -13 -19 0
7 -10 13 0
1 6 18 0
2 16 -17 0
2 -19 20 0
3 4 -12 0
15 -16 -20 0
5 -13 17 0
4 9 14 0
-11 -12 -17 0
7 11 -16 0
